seed= 2052018 ;
N= 14 ;
M= 2 ;
F= 2 ;
K= 4 ;
T= 72 ;

p=[ 16 16 16 16 16 16 16 10 10 10 10 10 10 10 ];
r=[ 10 5 2 9 19 1 11 20 14 17 6 5 15 4 ];
d=[ 17 24 1 26 7 3 8 21 11 19 16 11 24 14 ];
s=[ 1 1 1 1 1 1 1 1 1 1 1 1 1 1 ];
w=[ 4 1 2 4 4 2 5 1 3 3 1 3 1 4 ];
f=[ 1 1 1 1 1 1 1 2 2 2 2 2 2 2 ];

e1=[ 10 10 10 10 10 10 10 10 10 10 10 10 10 10 10 10 10 10 10 10 10 10 10 10 10 10 10 10 10 10 10 10 10 10 10 10 8 8 8 8 8 8 8 8 8 8 8 8 8 8 8 8 8 8 8 8 8 8 8 8 8 8 8 8 8 8 8 8 8 8 8 8 ];
e2=[ 10 10 10 10 10 10 10 10 10 10 10 10 10 10 10 10 10 10 10 10 10 10 10 10 9 9 9 9 9 9 9 9 9 9 9 9 8 8 8 8 8 8 8 8 8 8 8 8 8 8 8 8 8 8 8 8 8 8 8 8 9 9 9 9 9 9 9 9 9 9 9 9 ];